benchmark/results/graph__15-1000-0.10-03_12/error_log/graph__15-1000-0.10-03_12_Quinton_Benders_primal_sub_ERRORLOG.lp
\ This file has been generated by DOcplex
\ ENCODING=ISO-8859-1
\Problem name: Quinton Benders_primal_sub

Maximize
 obj: tau
Subject To
 c1: tau <= 0.001117318436
 c2: y_a0_proc_0 + y_a0_proc_1 - tau = 0
 c3: y_a0_proc_0 <= 1
 c4: y_a0_proc_1 <= 0
 c5: tau <= 0.001121076233
 c6: y_a1_proc_0 + y_a1_proc_1 + y_a1_proc_2 - tau = 0
 c7: y_a1_proc_0 <= 1
 c8: y_a1_proc_1 <= 0
 c9: y_a1_proc_2 <= 0
 c10: tau <= 0.000966183575
 c11: y_a2_proc_0 + y_a2_proc_1 + y_a2_proc_2 - tau = 0
 c12: y_a2_proc_0 <= 0
 c13: y_a2_proc_1 <= 0
 c14: y_a2_proc_2 <= 1
 c15: tau <= 0.002192982456
 c16: y_a3_proc_1 - tau = 0
 c17: y_a3_proc_1 <= 1
 c18: tau <= 0.000882612533
 c19: y_a4_proc_0 + y_a4_proc_1 + y_a4_proc_2 - tau = 0
 c20: y_a4_proc_0 <= 0
 c21: y_a4_proc_1 <= 0
 c22: y_a4_proc_2 <= 1
 c23: tau <= 0.001003009027
 c24: y_a5_proc_0 + y_a5_proc_1 + y_a5_proc_2 - tau = 0
 c25: y_a5_proc_0 <= 1
 c26: y_a5_proc_1 <= 0
 c27: y_a5_proc_2 <= 0
 c28: tau <= 0.001367989056
 c29: y_a6_proc_1 - tau = 0
 c30: y_a6_proc_1 <= 1
 c31: tau <= 0.000934579439
 c32: y_a7_proc_0 + y_a7_proc_2 - tau = 0
 c33: y_a7_proc_0 <= 0
 c34: y_a7_proc_2 <= 1
 c35: tau <= 0.000862068966
 c36: y_a8_proc_0 + y_a8_proc_2 - tau = 0
 c37: y_a8_proc_0 <= 1
 c38: y_a8_proc_2 <= 0
 c39: tau <= 0.001028806584
 c40: y_a9_proc_0 + y_a9_proc_1 + y_a9_proc_2 - tau = 0
 c41: y_a9_proc_0 <= 0
 c42: y_a9_proc_1 <= 0
 c43: y_a9_proc_2 <= 1
 c44: tau <= 0.001285347044
 c45: y_a10_proc_0 + y_a10_proc_2 - tau = 0
 c46: y_a10_proc_0 <= 1
 c47: y_a10_proc_2 <= 0
 c48: tau <= 0.001200480192
 c49: y_a11_proc_1 + y_a11_proc_2 - tau = 0
 c50: y_a11_proc_1 <= 0
 c51: y_a11_proc_2 <= 1
 c52: tau <= 0.001855287570
 c53: y_a12_proc_0 + y_a12_proc_1 + y_a12_proc_2 - tau = 0
 c54: y_a12_proc_0 <= 1
 c55: y_a12_proc_1 <= 0
 c56: y_a12_proc_2 <= 0
 c57: tau <= 0.000780640125
 c58: y_a13_proc_0 + y_a13_proc_1 + y_a13_proc_2 - tau = 0
 c59: y_a13_proc_0 <= 0
 c60: y_a13_proc_1 <= 0
 c61: y_a13_proc_2 <= 1
 c62: tau <= 0.000960614793
 c63: y_a14_proc_1 + y_a14_proc_2 - tau = 0
 c64: y_a14_proc_1 <= 1
 c65: y_a14_proc_2 <= 0
 c66: u_a0 - u_a1 - 892 y_a1_proc_0 - 1174 y_a1_proc_1 - 1294 y_a1_proc_2 >= 0
 c67: u_a1 - u_a2 - 852 y_a2_proc_0 - 1210 y_a2_proc_1 - 1035 y_a2_proc_2 >= 0
 c68: u_a3 - u_a0 - 895 y_a0_proc_0 - 1157 y_a0_proc_1 >= 0
 c69: u_a3 - u_a4 - 989 y_a4_proc_0 - 878 y_a4_proc_1 - 1133 y_a4_proc_2 >= 0
 c70: u_a1 - u_a5 - 997 y_a5_proc_0 - 1064 y_a5_proc_1 - 1203 y_a5_proc_2 >= -1
 c71: u_a2 - u_a6 - 731 y_a6_proc_1 >= 0
 c72: u_a7 - u_a5 - 997 y_a5_proc_0 - 1064 y_a5_proc_1 - 1203 y_a5_proc_2 >= 0
 c73: u_a8 - u_a7 - 933 y_a7_proc_0 - 1070 y_a7_proc_2 >= 0
 c74: u_a6 - u_a9 - 1129 y_a9_proc_0 - 845 y_a9_proc_1 - 972 y_a9_proc_2 >= -1
 c75: u_a9 - u_a10 - 778 y_a10_proc_0 - 792 y_a10_proc_2 >= -1
 c76: u_a3 - u_a11 - 1032 y_a11_proc_1 - 833 y_a11_proc_2 >= 0
 c77: u_a12 - u_a8 - 1160 y_a8_proc_0 - 593 y_a8_proc_2 >= -2
 c78: u_a13 - u_a3 - 456 y_a3_proc_1 >= 0
 c79: u_a12 - u_a14 - 1041 y_a14_proc_1 - 579 y_a14_proc_2 >= -1
 c80: u_a7 - u_a8 - 1160 y_a8_proc_0 - 593 y_a8_proc_2 >= -1
 c81: u_a5 - u_a13 - 775 y_a13_proc_0 - 468 y_a13_proc_1 - 1281 y_a13_proc_2
       >= -1
 c82: u_a4 - u_a7 - 933 y_a7_proc_0 - 1070 y_a7_proc_2 >= 0
 c83: u_a9 - u_a13 - 775 y_a13_proc_0 - 468 y_a13_proc_1 - 1281 y_a13_proc_2
       >= -1
 c84: u_a12 - u_a3 - 456 y_a3_proc_1 >= -1
 c85: u_a10 - u_a14 - 1041 y_a14_proc_1 - 579 y_a14_proc_2 >= 0
 c86: u_a14 - u_a9 - 1129 y_a9_proc_0 - 845 y_a9_proc_1 - 972 y_a9_proc_2 >= 0
 c87: u_a7 - u_a3 - 456 y_a3_proc_1 >= -1
 c88: u_a14 - u_a5 - 997 y_a5_proc_0 - 1064 y_a5_proc_1 - 1203 y_a5_proc_2 >= 0
 c89: u_a9 - u_a11 - 1032 y_a11_proc_1 - 833 y_a11_proc_2 >= 0
 c90: u_a6 - u_a12 - 539 y_a12_proc_0 - 789 y_a12_proc_1 - 1042 y_a12_proc_2
       >= 0
 c91: u_a1 - u_a0 - 895 y_a0_proc_0 >= -1
 c92: u_a1 - u_a0 - 1157 y_a0_proc_1 >= -2589
 c93: u_a0 - u_a1 - 892 y_a1_proc_0 >= 0
 c94: u_a0 - u_a1 - 1174 y_a1_proc_1 >= -2588
 c95: u_a2 - u_a0 - 895 y_a0_proc_0 >= -2589
 c96: u_a2 - u_a0 - 1157 y_a0_proc_1 >= -3883
 c97: u_a0 - u_a2 - 852 y_a2_proc_0 >= 0
 c98: u_a0 - u_a2 - 1210 y_a2_proc_1 >= -1294
 c99: u_a3 - u_a0 - 1157 y_a0_proc_1 >= -2588
 c100: u_a0 - u_a3 - 456 y_a3_proc_1 >= -1
 c101: u_a4 - u_a0 - 895 y_a0_proc_0 >= -2588
 c102: u_a4 - u_a0 - 1157 y_a0_proc_1 >= -3882
 c103: u_a0 - u_a4 - 989 y_a4_proc_0 >= -1
 c104: u_a0 - u_a4 - 878 y_a4_proc_1 >= -1295
 c105: u_a5 - u_a0 - 895 y_a0_proc_0 >= -1
 c106: u_a5 - u_a0 - 1157 y_a0_proc_1 >= -2589
 c107: u_a0 - u_a5 - 997 y_a5_proc_0 >= 0
 c108: u_a0 - u_a5 - 1064 y_a5_proc_1 >= -2588
 c109: u_a6 - u_a0 - 1157 y_a0_proc_1 >= -2589
 c110: u_a0 - u_a6 - 731 y_a6_proc_1 >= 0
 c111: u_a7 - u_a0 - 895 y_a0_proc_0 >= -2589
 c112: u_a0 - u_a7 - 933 y_a7_proc_0 >= 0
 c113: u_a8 - u_a0 - 895 y_a0_proc_0 >= -1
 c114: u_a0 - u_a8 - 1160 y_a8_proc_0 >= 0
 c115: u_a9 - u_a0 - 895 y_a0_proc_0 >= -2588
 c116: u_a9 - u_a0 - 1157 y_a0_proc_1 >= -3882
 c117: u_a0 - u_a9 - 1129 y_a9_proc_0 >= -1
 c118: u_a0 - u_a9 - 845 y_a9_proc_1 >= -1295
 c119: u_a10 - u_a0 - 895 y_a0_proc_0 >= 1
 c120: u_a0 - u_a10 - 778 y_a10_proc_0 >= -2
 c121: u_a11 - u_a0 - 1157 y_a0_proc_1 >= -1000002588
 c122: u_a0 - u_a11 - 1032 y_a11_proc_1 >= 999997411
 c123: u_a12 - u_a0 - 895 y_a0_proc_0 >= -1
 c124: u_a12 - u_a0 - 1157 y_a0_proc_1 >= -2589
 c125: u_a0 - u_a12 - 539 y_a12_proc_0 >= 0
 c126: u_a0 - u_a12 - 789 y_a12_proc_1 >= -2588
 c127: u_a13 - u_a0 - 895 y_a0_proc_0 >= -2588
 c128: u_a13 - u_a0 - 1157 y_a0_proc_1 >= -3882
 c129: u_a0 - u_a13 - 775 y_a13_proc_0 >= -1
 c130: u_a0 - u_a13 - 468 y_a13_proc_1 >= -1295
 c131: u_a14 - u_a0 - 1157 y_a0_proc_1 >= -2588
 c132: u_a0 - u_a14 - 1041 y_a14_proc_1 >= -1
 c133: u_a2 - u_a1 - 1294 y_a1_proc_2 >= -2589
 c134: u_a2 - u_a1 - 892 y_a1_proc_0 >= -2589
 c135: u_a2 - u_a1 - 1174 y_a1_proc_1 >= -3883
 c136: u_a1 - u_a2 - 1035 y_a2_proc_2 >= 0
 c137: u_a1 - u_a2 - 852 y_a2_proc_0 >= 0
 c138: u_a1 - u_a2 - 1210 y_a2_proc_1 >= -1294
 c139: u_a3 - u_a1 - 1174 y_a1_proc_1 >= -2588
 c140: u_a1 - u_a3 - 456 y_a3_proc_1 >= -1
 c141: u_a4 - u_a1 - 1294 y_a1_proc_2 >= -2588
 c142: u_a4 - u_a1 - 892 y_a1_proc_0 >= -2588
 c143: u_a4 - u_a1 - 1174 y_a1_proc_1 >= -3882
 c144: u_a1 - u_a4 - 1133 y_a4_proc_2 >= -1
 c145: u_a1 - u_a4 - 989 y_a4_proc_0 >= -1
 c146: u_a1 - u_a4 - 878 y_a4_proc_1 >= -1295
 c147: u_a5 - u_a1 - 1294 y_a1_proc_2 >= -2589
 c148: u_a5 - u_a1 - 892 y_a1_proc_0 >= -1
 c149: u_a5 - u_a1 - 1174 y_a1_proc_1 >= -2589
 c150: u_a1 - u_a5 - 1203 y_a5_proc_2 >= -2588
 c151: u_a1 - u_a5 - 997 y_a5_proc_0 >= 0
 c152: u_a1 - u_a5 - 1064 y_a5_proc_1 >= -2588
 c153: u_a6 - u_a1 - 1174 y_a1_proc_1 >= -2589
 c154: u_a1 - u_a6 - 731 y_a6_proc_1 >= 0
 c155: u_a7 - u_a1 - 1294 y_a1_proc_2 >= -1
 c156: u_a7 - u_a1 - 892 y_a1_proc_0 >= -1
 c157: u_a1 - u_a7 - 1070 y_a7_proc_2 >= -2588
 c158: u_a1 - u_a7 - 933 y_a7_proc_0 >= -2588
 c159: u_a8 - u_a1 - 1294 y_a1_proc_2 >= -2589
 c160: u_a8 - u_a1 - 892 y_a1_proc_0 >= -1
 c161: u_a1 - u_a8 - 593 y_a8_proc_2 >= -2588
 c162: u_a1 - u_a8 - 1160 y_a8_proc_0 >= 0
 c163: u_a9 - u_a1 - 1294 y_a1_proc_2 >= -2588
 c164: u_a9 - u_a1 - 892 y_a1_proc_0 >= -2588
 c165: u_a9 - u_a1 - 1174 y_a1_proc_1 >= -3882
 c166: u_a1 - u_a9 - 972 y_a9_proc_2 >= -1
 c167: u_a1 - u_a9 - 1129 y_a9_proc_0 >= -1
 c168: u_a1 - u_a9 - 845 y_a9_proc_1 >= -1295
 c169: u_a10 - u_a1 - 1294 y_a1_proc_2 >= -2587
 c170: u_a10 - u_a1 - 892 y_a1_proc_0 >= 1
 c171: u_a1 - u_a10 - 792 y_a10_proc_2 >= -2590
 c172: u_a1 - u_a10 - 778 y_a10_proc_0 >= -2
 c173: u_a11 - u_a1 - 1294 y_a1_proc_2 >= -1000001294
 c174: u_a11 - u_a1 - 1174 y_a1_proc_1 >= -1000002588
 c175: u_a1 - u_a11 - 833 y_a11_proc_2 >= 999998705
 c176: u_a1 - u_a11 - 1032 y_a11_proc_1 >= 999997411
 c177: u_a12 - u_a1 - 1294 y_a1_proc_2 >= -2589
 c178: u_a12 - u_a1 - 892 y_a1_proc_0 >= -1
 c179: u_a12 - u_a1 - 1174 y_a1_proc_1 >= -2589
 c180: u_a1 - u_a12 - 1042 y_a12_proc_2 >= -2588
 c181: u_a1 - u_a12 - 539 y_a12_proc_0 >= 0
 c182: u_a1 - u_a12 - 789 y_a12_proc_1 >= -2588
 c183: u_a13 - u_a1 - 1294 y_a1_proc_2 >= -2588
 c184: u_a13 - u_a1 - 892 y_a1_proc_0 >= -2588
 c185: u_a13 - u_a1 - 1174 y_a1_proc_1 >= -3882
 c186: u_a1 - u_a13 - 1281 y_a13_proc_2 >= -1
 c187: u_a1 - u_a13 - 775 y_a13_proc_0 >= -1
 c188: u_a1 - u_a13 - 468 y_a13_proc_1 >= -1295
 c189: u_a14 - u_a1 - 1294 y_a1_proc_2 >= -3882
 c190: u_a14 - u_a1 - 1174 y_a1_proc_1 >= -2588
 c191: u_a1 - u_a14 - 579 y_a14_proc_2 >= -1295
 c192: u_a1 - u_a14 - 1041 y_a14_proc_1 >= -1
 c193: u_a3 - u_a2 - 1210 y_a2_proc_1 >= -2588
 c194: u_a2 - u_a3 - 456 y_a3_proc_1 >= -1
 c195: u_a4 - u_a2 - 1035 y_a2_proc_2 >= 0
 c196: u_a4 - u_a2 - 852 y_a2_proc_0 >= -2588
 c197: u_a4 - u_a2 - 1210 y_a2_proc_1 >= -2588
 c198: u_a2 - u_a4 - 1133 y_a4_proc_2 >= -1
 c199: u_a2 - u_a4 - 989 y_a4_proc_0 >= -2589
 c200: u_a2 - u_a4 - 878 y_a4_proc_1 >= -2589
 c201: u_a5 - u_a2 - 1035 y_a2_proc_2 >= -2589
 c202: u_a5 - u_a2 - 852 y_a2_proc_0 >= -2589
 c203: u_a5 - u_a2 - 1210 y_a2_proc_1 >= -3883
 c204: u_a2 - u_a5 - 1203 y_a5_proc_2 >= 0
 c205: u_a2 - u_a5 - 997 y_a5_proc_0 >= 0
 c206: u_a2 - u_a5 - 1064 y_a5_proc_1 >= -1294
 c207: u_a6 - u_a2 - 1210 y_a2_proc_1 >= -2589
 c208: u_a2 - u_a6 - 731 y_a6_proc_1 >= 0
 c209: u_a7 - u_a2 - 1035 y_a2_proc_2 >= -1
 c210: u_a7 - u_a2 - 852 y_a2_proc_0 >= -2589
 c211: u_a2 - u_a7 - 1070 y_a7_proc_2 >= 0
 c212: u_a2 - u_a7 - 933 y_a7_proc_0 >= -2588
 c213: u_a8 - u_a2 - 1035 y_a2_proc_2 >= -2588
 c214: u_a8 - u_a2 - 852 y_a2_proc_0 >= -2588
 c215: u_a2 - u_a8 - 593 y_a8_proc_2 >= -1
 c216: u_a2 - u_a8 - 1160 y_a8_proc_0 >= -1
 c217: u_a9 - u_a2 - 1035 y_a2_proc_2 >= 0
 c218: u_a9 - u_a2 - 852 y_a2_proc_0 >= -2588
 c219: u_a9 - u_a2 - 1210 y_a2_proc_1 >= -2588
 c220: u_a2 - u_a9 - 972 y_a9_proc_2 >= -1
 c221: u_a2 - u_a9 - 1129 y_a9_proc_0 >= -2589
 c222: u_a2 - u_a9 - 845 y_a9_proc_1 >= -2589
 c223: u_a10 - u_a2 - 1035 y_a2_proc_2 >= -2587
 c224: u_a10 - u_a2 - 852 y_a2_proc_0 >= -2587
 c225: u_a2 - u_a10 - 792 y_a10_proc_2 >= -2
 c226: u_a2 - u_a10 - 778 y_a10_proc_0 >= -2
 c227: u_a11 - u_a2 - 1035 y_a2_proc_2 >= -999998706
 c228: u_a11 - u_a2 - 1210 y_a2_proc_1 >= -1000001294
 c229: u_a2 - u_a11 - 833 y_a11_proc_2 >= 999998705
 c230: u_a2 - u_a11 - 1032 y_a11_proc_1 >= 999996117
 c231: u_a12 - u_a2 - 1035 y_a2_proc_2 >= -2589
 c232: u_a12 - u_a2 - 852 y_a2_proc_0 >= -2589
 c233: u_a12 - u_a2 - 1210 y_a2_proc_1 >= -3883
 c234: u_a2 - u_a12 - 1042 y_a12_proc_2 >= 0
 c235: u_a2 - u_a12 - 539 y_a12_proc_0 >= 0
 c236: u_a2 - u_a12 - 789 y_a12_proc_1 >= -1294
 c237: u_a13 - u_a2 - 1035 y_a2_proc_2 >= 0
 c238: u_a13 - u_a2 - 852 y_a2_proc_0 >= -2588
 c239: u_a13 - u_a2 - 1210 y_a2_proc_1 >= -2588
 c240: u_a2 - u_a13 - 1281 y_a13_proc_2 >= -1
 c241: u_a2 - u_a13 - 775 y_a13_proc_0 >= -2589
 c242: u_a2 - u_a13 - 468 y_a13_proc_1 >= -2589
 c243: u_a14 - u_a2 - 1035 y_a2_proc_2 >= -2588
 c244: u_a14 - u_a2 - 1210 y_a2_proc_1 >= -2588
 c245: u_a2 - u_a14 - 579 y_a14_proc_2 >= -1
 c246: u_a2 - u_a14 - 1041 y_a14_proc_1 >= -1
 c247: u_a4 - u_a3 - 456 y_a3_proc_1 >= -2589
 c248: u_a3 - u_a4 - 878 y_a4_proc_1 >= 0
 c249: u_a5 - u_a3 - 456 y_a3_proc_1 >= -2589
 c250: u_a3 - u_a5 - 1064 y_a5_proc_1 >= 0
 c251: u_a6 - u_a3 - 456 y_a3_proc_1 >= -1
 c252: u_a3 - u_a6 - 731 y_a6_proc_1 >= 0
 c253: u_a9 - u_a3 - 456 y_a3_proc_1 >= -2588
 c254: u_a3 - u_a9 - 845 y_a9_proc_1 >= -1
 c255: u_a11 - u_a3 - 456 y_a3_proc_1 >= -1000001294
 c256: u_a3 - u_a11 - 1032 y_a11_proc_1 >= 999998705
 c257: u_a12 - u_a3 - 456 y_a3_proc_1 >= -2589
 c258: u_a3 - u_a12 - 789 y_a12_proc_1 >= 0
 c259: u_a13 - u_a3 - 456 y_a3_proc_1 >= -2588
 c260: u_a3 - u_a13 - 468 y_a13_proc_1 >= -1
 c261: u_a14 - u_a3 - 456 y_a3_proc_1 >= 0
 c262: u_a3 - u_a14 - 1041 y_a14_proc_1 >= -1
 c263: u_a5 - u_a4 - 1133 y_a4_proc_2 >= -2589
 c264: u_a5 - u_a4 - 989 y_a4_proc_0 >= -2589
 c265: u_a5 - u_a4 - 878 y_a4_proc_1 >= -3883
 c266: u_a4 - u_a5 - 1203 y_a5_proc_2 >= 0
 c267: u_a4 - u_a5 - 997 y_a5_proc_0 >= 0
 c268: u_a4 - u_a5 - 1064 y_a5_proc_1 >= -1294
 c269: u_a6 - u_a4 - 878 y_a4_proc_1 >= -2589
 c270: u_a4 - u_a6 - 731 y_a6_proc_1 >= 0
 c271: u_a7 - u_a4 - 1133 y_a4_proc_2 >= -1
 c272: u_a7 - u_a4 - 989 y_a4_proc_0 >= -2589
 c273: u_a4 - u_a7 - 1070 y_a7_proc_2 >= 0
 c274: u_a4 - u_a7 - 933 y_a7_proc_0 >= -2588
 c275: u_a8 - u_a4 - 1133 y_a4_proc_2 >= -2589
 c276: u_a8 - u_a4 - 989 y_a4_proc_0 >= -2589
 c277: u_a4 - u_a8 - 593 y_a8_proc_2 >= 0
 c278: u_a4 - u_a8 - 1160 y_a8_proc_0 >= 0
 c279: u_a9 - u_a4 - 1133 y_a4_proc_2 >= 0
 c280: u_a9 - u_a4 - 989 y_a4_proc_0 >= -2588
 c281: u_a9 - u_a4 - 878 y_a4_proc_1 >= -2588
 c282: u_a4 - u_a9 - 972 y_a9_proc_2 >= -1
 c283: u_a4 - u_a9 - 1129 y_a9_proc_0 >= -2589
 c284: u_a4 - u_a9 - 845 y_a9_proc_1 >= -2589
 c285: u_a10 - u_a4 - 1133 y_a4_proc_2 >= -2587
 c286: u_a10 - u_a4 - 989 y_a4_proc_0 >= -2587
 c287: u_a4 - u_a10 - 792 y_a10_proc_2 >= -2
 c288: u_a4 - u_a10 - 778 y_a10_proc_0 >= -2
 c289: u_a11 - u_a4 - 1133 y_a4_proc_2 >= -999998706
 c290: u_a11 - u_a4 - 878 y_a4_proc_1 >= -1000001294
 c291: u_a4 - u_a11 - 833 y_a11_proc_2 >= 999998705
 c292: u_a4 - u_a11 - 1032 y_a11_proc_1 >= 999996117
 c293: u_a12 - u_a4 - 1133 y_a4_proc_2 >= -2589
 c294: u_a12 - u_a4 - 989 y_a4_proc_0 >= -2589
 c295: u_a12 - u_a4 - 878 y_a4_proc_1 >= -3883
 c296: u_a4 - u_a12 - 1042 y_a12_proc_2 >= 0
 c297: u_a4 - u_a12 - 539 y_a12_proc_0 >= 0
 c298: u_a4 - u_a12 - 789 y_a12_proc_1 >= -1294
 c299: u_a13 - u_a4 - 1133 y_a4_proc_2 >= 0
 c300: u_a13 - u_a4 - 989 y_a4_proc_0 >= -2588
 c301: u_a13 - u_a4 - 878 y_a4_proc_1 >= -2588
 c302: u_a4 - u_a13 - 1281 y_a13_proc_2 >= -1
 c303: u_a4 - u_a13 - 775 y_a13_proc_0 >= -2589
 c304: u_a4 - u_a13 - 468 y_a13_proc_1 >= -2589
 c305: u_a14 - u_a4 - 1133 y_a4_proc_2 >= -2588
 c306: u_a14 - u_a4 - 878 y_a4_proc_1 >= -2588
 c307: u_a4 - u_a14 - 579 y_a14_proc_2 >= -1
 c308: u_a4 - u_a14 - 1041 y_a14_proc_1 >= -1
 c309: u_a6 - u_a5 - 1064 y_a5_proc_1 >= -2588
 c310: u_a5 - u_a6 - 731 y_a6_proc_1 >= -1
 c311: u_a7 - u_a5 - 1203 y_a5_proc_2 >= -2588
 c312: u_a7 - u_a5 - 997 y_a5_proc_0 >= -2588
 c313: u_a5 - u_a7 - 1070 y_a7_proc_2 >= -1
 c314: u_a5 - u_a7 - 933 y_a7_proc_0 >= -1
 c315: u_a8 - u_a5 - 1203 y_a5_proc_2 >= -2588
 c316: u_a8 - u_a5 - 997 y_a5_proc_0 >= 0
 c317: u_a5 - u_a8 - 593 y_a8_proc_2 >= -2589
 c318: u_a5 - u_a8 - 1160 y_a8_proc_0 >= -1
 c319: u_a9 - u_a5 - 1203 y_a5_proc_2 >= 1
 c320: u_a9 - u_a5 - 997 y_a5_proc_0 >= 1
 c321: u_a9 - u_a5 - 1064 y_a5_proc_1 >= -1293
 c322: u_a5 - u_a9 - 972 y_a9_proc_2 >= -2590
 c323: u_a5 - u_a9 - 1129 y_a9_proc_0 >= -2590
 c324: u_a5 - u_a9 - 845 y_a9_proc_1 >= -3884
 c325: u_a10 - u_a5 - 1203 y_a5_proc_2 >= -2586
 c326: u_a10 - u_a5 - 997 y_a5_proc_0 >= 2
 c327: u_a5 - u_a10 - 792 y_a10_proc_2 >= -2591
 c328: u_a5 - u_a10 - 778 y_a10_proc_0 >= -3
 c329: u_a11 - u_a5 - 1203 y_a5_proc_2 >= -1000001293
 c330: u_a11 - u_a5 - 1064 y_a5_proc_1 >= -1000002587
 c331: u_a5 - u_a11 - 833 y_a11_proc_2 >= 999998704
 c332: u_a5 - u_a11 - 1032 y_a11_proc_1 >= 999997410
 c333: u_a12 - u_a5 - 1203 y_a5_proc_2 >= -2588
 c334: u_a12 - u_a5 - 997 y_a5_proc_0 >= 0
 c335: u_a12 - u_a5 - 1064 y_a5_proc_1 >= -2588
 c336: u_a5 - u_a12 - 1042 y_a12_proc_2 >= -2589
 c337: u_a5 - u_a12 - 539 y_a12_proc_0 >= -1
 c338: u_a5 - u_a12 - 789 y_a12_proc_1 >= -2589
 c339: u_a13 - u_a5 - 1203 y_a5_proc_2 >= -2588
 c340: u_a13 - u_a5 - 997 y_a5_proc_0 >= -2588
 c341: u_a13 - u_a5 - 1064 y_a5_proc_1 >= -3882
 c342: u_a5 - u_a13 - 1281 y_a13_proc_2 >= -1
 c343: u_a5 - u_a13 - 775 y_a13_proc_0 >= -1
 c344: u_a5 - u_a13 - 468 y_a13_proc_1 >= -1295
 c345: u_a14 - u_a5 - 1203 y_a5_proc_2 >= -3881
 c346: u_a14 - u_a5 - 1064 y_a5_proc_1 >= -2587
 c347: u_a5 - u_a14 - 579 y_a14_proc_2 >= -1296
 c348: u_a5 - u_a14 - 1041 y_a14_proc_1 >= -2
 c349: u_a9 - u_a6 - 731 y_a6_proc_1 >= -2588
 c350: u_a6 - u_a9 - 845 y_a9_proc_1 >= -1
 c351: u_a11 - u_a6 - 731 y_a6_proc_1 >= -1000001293
 c352: u_a6 - u_a11 - 1032 y_a11_proc_1 >= 999998704
 c353: u_a12 - u_a6 - 731 y_a6_proc_1 >= -2588
 c354: u_a6 - u_a12 - 789 y_a12_proc_1 >= -1
 c355: u_a13 - u_a6 - 731 y_a6_proc_1 >= -2588
 c356: u_a6 - u_a13 - 468 y_a13_proc_1 >= -1
 c357: u_a14 - u_a6 - 731 y_a6_proc_1 >= 0
 c358: u_a6 - u_a14 - 1041 y_a14_proc_1 >= -1
 c359: u_a8 - u_a7 - 1070 y_a7_proc_2 >= -2588
 c360: u_a8 - u_a7 - 933 y_a7_proc_0 >= -2588
 c361: u_a7 - u_a8 - 593 y_a8_proc_2 >= -1
 c362: u_a7 - u_a8 - 1160 y_a8_proc_0 >= -1
 c363: u_a9 - u_a7 - 1070 y_a7_proc_2 >= 0
 c364: u_a9 - u_a7 - 933 y_a7_proc_0 >= -2588
 c365: u_a7 - u_a9 - 972 y_a9_proc_2 >= -1
 c366: u_a7 - u_a9 - 1129 y_a9_proc_0 >= -2589
 c367: u_a10 - u_a7 - 1070 y_a7_proc_2 >= 1
 c368: u_a10 - u_a7 - 933 y_a7_proc_0 >= 1
 c369: u_a7 - u_a10 - 792 y_a10_proc_2 >= -2590
 c370: u_a7 - u_a10 - 778 y_a10_proc_0 >= -2590
 c371: u_a11 - u_a7 - 1070 y_a7_proc_2 >= -999998705
 c372: u_a7 - u_a11 - 833 y_a11_proc_2 >= 999998704
 c373: u_a12 - u_a7 - 1070 y_a7_proc_2 >= -2588
 c374: u_a12 - u_a7 - 933 y_a7_proc_0 >= -2588
 c375: u_a7 - u_a12 - 1042 y_a12_proc_2 >= -1
 c376: u_a7 - u_a12 - 539 y_a12_proc_0 >= -1
 c377: u_a13 - u_a7 - 1070 y_a7_proc_2 >= 0
 c378: u_a13 - u_a7 - 933 y_a7_proc_0 >= -2588
 c379: u_a7 - u_a13 - 1281 y_a13_proc_2 >= -1
 c380: u_a7 - u_a13 - 775 y_a13_proc_0 >= -2589
 c381: u_a14 - u_a7 - 1070 y_a7_proc_2 >= -2587
 c382: u_a7 - u_a14 - 579 y_a14_proc_2 >= -2
 c383: u_a9 - u_a8 - 593 y_a8_proc_2 >= -2588
 c384: u_a9 - u_a8 - 1160 y_a8_proc_0 >= -2588
 c385: u_a8 - u_a9 - 972 y_a9_proc_2 >= -1
 c386: u_a8 - u_a9 - 1129 y_a9_proc_0 >= -1
 c387: u_a10 - u_a8 - 593 y_a8_proc_2 >= -2587
 c388: u_a10 - u_a8 - 1160 y_a8_proc_0 >= 1
 c389: u_a8 - u_a10 - 792 y_a10_proc_2 >= -2590
 c390: u_a8 - u_a10 - 778 y_a10_proc_0 >= -2
 c391: u_a11 - u_a8 - 593 y_a8_proc_2 >= -1000001294
 c392: u_a8 - u_a11 - 833 y_a11_proc_2 >= 999998705
 c393: u_a12 - u_a8 - 593 y_a8_proc_2 >= -2589
 c394: u_a12 - u_a8 - 1160 y_a8_proc_0 >= -1
 c395: u_a8 - u_a12 - 1042 y_a12_proc_2 >= -2588
 c396: u_a8 - u_a12 - 539 y_a12_proc_0 >= 0
 c397: u_a13 - u_a8 - 593 y_a8_proc_2 >= -2588
 c398: u_a13 - u_a8 - 1160 y_a8_proc_0 >= -2588
 c399: u_a8 - u_a13 - 1281 y_a13_proc_2 >= -1
 c400: u_a8 - u_a13 - 775 y_a13_proc_0 >= -1
 c401: u_a14 - u_a8 - 593 y_a8_proc_2 >= -5176
 c402: u_a8 - u_a14 - 579 y_a14_proc_2 >= -1
 c403: u_a10 - u_a9 - 972 y_a9_proc_2 >= -2587
 c404: u_a10 - u_a9 - 1129 y_a9_proc_0 >= -2587
 c405: u_a9 - u_a10 - 792 y_a10_proc_2 >= -2
 c406: u_a9 - u_a10 - 778 y_a10_proc_0 >= -2
 c407: u_a11 - u_a9 - 972 y_a9_proc_2 >= -999998706
 c408: u_a11 - u_a9 - 845 y_a9_proc_1 >= -1000001294
 c409: u_a9 - u_a11 - 833 y_a11_proc_2 >= 999998705
 c410: u_a9 - u_a11 - 1032 y_a11_proc_1 >= 999996117
 c411: u_a12 - u_a9 - 972 y_a9_proc_2 >= -2589
 c412: u_a12 - u_a9 - 1129 y_a9_proc_0 >= -2589
 c413: u_a12 - u_a9 - 845 y_a9_proc_1 >= -3883
 c414: u_a9 - u_a12 - 1042 y_a12_proc_2 >= 0
 c415: u_a9 - u_a12 - 539 y_a12_proc_0 >= 0
 c416: u_a9 - u_a12 - 789 y_a12_proc_1 >= -1294
 c417: u_a13 - u_a9 - 972 y_a9_proc_2 >= -1
 c418: u_a13 - u_a9 - 1129 y_a9_proc_0 >= -2589
 c419: u_a13 - u_a9 - 845 y_a9_proc_1 >= -2589
 c420: u_a9 - u_a13 - 1281 y_a13_proc_2 >= 0
 c421: u_a9 - u_a13 - 775 y_a13_proc_0 >= -2588
 c422: u_a9 - u_a13 - 468 y_a13_proc_1 >= -2588
 c423: u_a14 - u_a9 - 972 y_a9_proc_2 >= -2588
 c424: u_a14 - u_a9 - 845 y_a9_proc_1 >= -2588
 c425: u_a9 - u_a14 - 579 y_a14_proc_2 >= -1
 c426: u_a9 - u_a14 - 1041 y_a14_proc_1 >= -1
 c427: u_a11 - u_a10 - 792 y_a10_proc_2 >= -1000001294
 c428: u_a10 - u_a11 - 833 y_a11_proc_2 >= 999998705
 c429: u_a12 - u_a10 - 792 y_a10_proc_2 >= -2590
 c430: u_a12 - u_a10 - 778 y_a10_proc_0 >= -2
 c431: u_a10 - u_a12 - 1042 y_a12_proc_2 >= -2587
 c432: u_a10 - u_a12 - 539 y_a12_proc_0 >= 1
 c433: u_a13 - u_a10 - 792 y_a10_proc_2 >= -2590
 c434: u_a13 - u_a10 - 778 y_a10_proc_0 >= -2590
 c435: u_a10 - u_a13 - 1281 y_a13_proc_2 >= 1
 c436: u_a10 - u_a13 - 775 y_a13_proc_0 >= 1
 c437: u_a14 - u_a10 - 792 y_a10_proc_2 >= -5177
 c438: u_a10 - u_a14 - 579 y_a14_proc_2 >= 0
 c439: u_a12 - u_a11 - 833 y_a11_proc_2 >= 999996117
 c440: u_a12 - u_a11 - 1032 y_a11_proc_1 >= 999994823
 c441: u_a11 - u_a12 - 1042 y_a12_proc_2 >= -999998706
 c442: u_a11 - u_a12 - 789 y_a12_proc_1 >= -1000000000
 c443: u_a13 - u_a11 - 833 y_a11_proc_2 >= 999998705
 c444: u_a13 - u_a11 - 1032 y_a11_proc_1 >= 999996117
 c445: u_a11 - u_a13 - 1281 y_a13_proc_2 >= -999998706
 c446: u_a11 - u_a13 - 468 y_a13_proc_1 >= -1000001294
 c447: u_a14 - u_a11 - 833 y_a11_proc_2 >= 999996118
 c448: u_a14 - u_a11 - 1032 y_a11_proc_1 >= 999996118
 c449: u_a11 - u_a14 - 579 y_a14_proc_2 >= -999998707
 c450: u_a11 - u_a14 - 1041 y_a14_proc_1 >= -999998707
 c451: u_a13 - u_a12 - 1042 y_a12_proc_2 >= -2588
 c452: u_a13 - u_a12 - 539 y_a12_proc_0 >= -2588
 c453: u_a13 - u_a12 - 789 y_a12_proc_1 >= -3882
 c454: u_a12 - u_a13 - 1281 y_a13_proc_2 >= -1
 c455: u_a12 - u_a13 - 775 y_a13_proc_0 >= -1
 c456: u_a12 - u_a13 - 468 y_a13_proc_1 >= -1295
 c457: u_a14 - u_a12 - 1042 y_a12_proc_2 >= -3882
 c458: u_a14 - u_a12 - 789 y_a12_proc_1 >= -2588
 c459: u_a12 - u_a14 - 579 y_a14_proc_2 >= -1295
 c460: u_a12 - u_a14 - 1041 y_a14_proc_1 >= -1
 c461: u_a14 - u_a13 - 1281 y_a13_proc_2 >= -2588
 c462: u_a14 - u_a13 - 468 y_a13_proc_1 >= -2588
 c463: u_a13 - u_a14 - 579 y_a14_proc_2 >= -1
 c464: u_a13 - u_a14 - 1041 y_a14_proc_1 >= -1

Bounds
End
